# layout:
# <class id> <instance id> <attribute 1> ... <attribute 16>\n
# ....

# conventions:
# - \s is used to place a space (ASCII 0x20)
# - \0 is used to place ASCII 0
# - enclose "a b c" in quotes (either single or double) to interpret it as one
# attribute
#
# numbers radix defined by prefix (0x for 16; 0 for 8; nothing for 10)


# ONT-G
256 0 LQDE 0000000000000 00000000 2 0 0 0 0 #0

# ONT2-G
257 0 0000000000000000000 0xa0 0 1 1 64 64 1 128 0 0x007f 0 0 48

# ONT data
2 0 0

# ONU dynamic power management control
336 0 0x1 0x0 0 0 0 0 0

# Software image
7 0
7 1

# ONT remote debug
158 0 0 "                         "

# OLT-G
131 0 "    " "                    " "              "

# ANI Cardholder
5 0x0180 249 249 0 "                    " "                    " 0 0 0 0

# ANI Circuit pack
6 0x0180 249 1 "        " "              " LQDE 0 1 0 "                    " 0 0 0 0 0

# ANI-G
263 0x8001 1 31 48 0 0 5 9 0 0 0 0xff 0xff 0 0 0x81 0x81

# UNI Cardholder
5 0x0104 47 47 0 "                    " "                    " 0 0 0 0

# UNI Circuit Pack
6 0x0104 47 4 "        " "              " LQDE 0 1 0 "                    " 0 0 0 0 0

# POTS Cardholder
5 0x0106 32 32 0 "                    " "                    " 0 0 0 0

# POTS Circuit Pack
6 0x0106 32 2 "        " "              " LQDE 0 1 0 "                    " 0 0 0 0 0

# Traffic Scheduler (DS)
278 0xff42 0x0000 0x0000 0x00 0x00
278 0xff43 0x0000 0x0000 0x00 0x00

# PPTP Ethernet UNI (DS)
11 0x0401 0 0 0 0x00 0 1 0 1534 0 0xffff 0 0 0 0 0
11 0x0402 0 0 0 0x00 0 1 0 1534 0 0xffff 0 0 0 0 0

# Priority Queue (DS) 8 times per PPTP Ethernet UNI
# class id, managed entity id, Queue configuration option, Maximum queue size
# Allocated queue size, Discard-block counter reset interval, Threshold value for discarded blocks due to buffer overflow, Related port
# Traffic scheduler-G pointer, Weight, Back pressure operation, Back pressure time
# Back pressure occur queue threshold, Back pressure clear queue threshold, Packet drop queue thresholds, Packet drop max_p
# Queue_drop_w_q, Drop precedence colour marking
#
# QID (prio queue, class id 277) = me_id & 0x00ff
# SBIN = (sbid << 3) + leaf
# 	sbid = traffic_scheduler_g_ptr & 0x7f
# 	leaf = related_port & 0x07
# EPN DS (egress port number downstream) = ((related_port >> 16) & 0xFF) + 63
# EPN US (egress port number upstream) = ((related_port >> 16) & 0xFF)
#
# drop thresholds:
# - green min: 1024 segments
# - green max: 2048 segments
# - yellow min: 512 segments
# - yellow max: 1024 segments
#
277 0x0080 1 0 0 60000 0xffff 0x04010000 0xff43 0x00 0x01 0x00000000 0xffff 0xffff \x05\x55\x0a\xab\x02\xaa\x05\x55 \x00\x00 3 3
277 0x0081 1 0 0 60000 0xffff 0x04010001 0xff43 0x00 0x01 0x00000000 0xffff 0xffff \x05\x55\x0a\xab\x02\xaa\x05\x55 \x00\x00 3 3
277 0x0082 1 0 0 60000 0xffff 0x04010002 0xff43 0x00 0x01 0x00000000 0xffff 0xffff \x05\x55\x0a\xab\x02\xaa\x05\x55 \x00\x00 3 3
277 0x0083 1 0 0 60000 0xffff 0x04010003 0xff43 0x00 0x01 0x00000000 0xffff 0xffff \x05\x55\x0a\xab\x02\xaa\x05\x55 \x00\x00 3 3
277 0x0084 1 0 0 60000 0xffff 0x04010004 0xff43 0x00 0x01 0x00000000 0xffff 0xffff \x05\x55\x0a\xab\x02\xaa\x05\x55 \x00\x00 3 3
277 0x0085 1 0 0 60000 0xffff 0x04010005 0xff43 0x00 0x01 0x00000000 0xffff 0xffff \x05\x55\x0a\xab\x02\xaa\x05\x55 \x00\x00 3 3
277 0x0086 1 0 0 60000 0xffff 0x04010006 0xff43 0x00 0x01 0x00000000 0xffff 0xffff \x05\x55\x0a\xab\x02\xaa\x05\x55 \x00\x00 3 3
277 0x0087 1 0 0 60000 0xffff 0x04010007 0xff43 0x00 0x01 0x00000000 0xffff 0xffff \x05\x55\x0a\xab\x02\xaa\x05\x55 \x00\x00 3 3
277 0x0088 1 0 0 60000 0xffff 0x04020000 0xff42 0x00 0x01 0x00000000 0xffff 0xffff \x05\x55\x0a\xab\x02\xaa\x05\x55 \x00\x00 3 3
277 0x0089 1 0 0 60000 0xffff 0x04020001 0xff42 0x00 0x01 0x00000000 0xffff 0xffff \x05\x55\x0a\xab\x02\xaa\x05\x55 \x00\x00 3 3
277 0x008a 1 0 0 60000 0xffff 0x04020002 0xff42 0x00 0x01 0x00000000 0xffff 0xffff \x05\x55\x0a\xab\x02\xaa\x05\x55 \x00\x00 3 3
277 0x008b 1 0 0 60000 0xffff 0x04020003 0xff42 0x00 0x01 0x00000000 0xffff 0xffff \x05\x55\x0a\xab\x02\xaa\x05\x55 \x00\x00 3 3
277 0x008c 1 0 0 60000 0xffff 0x04020004 0xff42 0x00 0x01 0x00000000 0xffff 0xffff \x05\x55\x0a\xab\x02\xaa\x05\x55 \x00\x00 3 3
277 0x008d 1 0 0 60000 0xffff 0x04020005 0xff42 0x00 0x01 0x00000000 0xffff 0xffff \x05\x55\x0a\xab\x02\xaa\x05\x55 \x00\x00 3 3
277 0x008e 1 0 0 60000 0xffff 0x04020006 0xff42 0x00 0x01 0x00000000 0xffff 0xffff \x05\x55\x0a\xab\x02\xaa\x05\x55 \x00\x00 3 3
277 0x008f 1 0 0 60000 0xffff 0x04020007 0xff42 0x00 0x01 0x00000000 0xffff 0xffff \x05\x55\x0a\xab\x02\xaa\x05\x55 \x00\x00 3 3


# UNI-G
264 0x0401 0 0 0 0
264 0x0402 0 0 0 0

# T-CONT (US)
262 0x8000 0x00ff 1 1
262 0x8001 0x00ff 1 1
262 0x8002 0x00ff 1 1
262 0x8003 0x00ff 1 1
262 0x8004 0x00ff 1 1
262 0x8005 0x00ff 1 1
262 0x8006 0x00ff 1 1
262 0x8007 0x00ff 1 1

# ANI Priority Queue (US), 4 queues per T-CONT (US)
277 0x8000 1 0 0 60000 0xffff 0x80000000 0x0000 0x00 0x01 0x00000000 0xffff 0xffff \x05\x55\x0a\xab\x02\xaa\x05\x55 \x00\x00 3 1
277 0x8001 1 0 0 60000 0xffff 0x80000001 0x0000 0x00 0x01 0x00000000 0xffff 0xffff \x05\x55\x0a\xab\x02\xaa\x05\x55 \x00\x00 3 1
277 0x8002 1 0 0 60000 0xffff 0x80000002 0x0000 0x00 0x01 0x00000000 0xffff 0xffff \x05\x55\x0a\xab\x02\xaa\x05\x55 \x00\x00 3 1
277 0x8003 1 0 0 60000 0xffff 0x80000003 0x0000 0x00 0x01 0x00000000 0xffff 0xffff \x05\x55\x0a\xab\x02\xaa\x05\x55 \x00\x00 3 1

277 0x8004 1 0 0 60000 0xffff 0x80010000 0x0000 0x00 0x01 0x00000000 0xffff 0xffff \x05\x55\x0a\xab\x02\xaa\x05\x55 \x00\x00 3 1
277 0x8005 1 0 0 60000 0xffff 0x80010001 0x0000 0x00 0x01 0x00000000 0xffff 0xffff \x05\x55\x0a\xab\x02\xaa\x05\x55 \x00\x00 3 1
277 0x8006 1 0 0 60000 0xffff 0x80010002 0x0000 0x00 0x01 0x00000000 0xffff 0xffff \x05\x55\x0a\xab\x02\xaa\x05\x55 \x00\x00 3 1
277 0x8007 1 0 0 60000 0xffff 0x80010003 0x0000 0x00 0x01 0x00000000 0xffff 0xffff \x05\x55\x0a\xab\x02\xaa\x05\x55 \x00\x00 3 1

277 0x8008 1 0 0 60000 0xffff 0x80020000 0x0000 0x00 0x01 0x00000000 0xffff 0xffff \x05\x55\x0a\xab\x02\xaa\x05\x55 \x00\x00 3 1
277 0x8009 1 0 0 60000 0xffff 0x80020001 0x0000 0x00 0x01 0x00000000 0xffff 0xffff \x05\x55\x0a\xab\x02\xaa\x05\x55 \x00\x00 3 1
277 0x800a 1 0 0 60000 0xffff 0x80020002 0x0000 0x00 0x01 0x00000000 0xffff 0xffff \x05\x55\x0a\xab\x02\xaa\x05\x55 \x00\x00 3 1
277 0x800b 1 0 0 60000 0xffff 0x80020003 0x0000 0x00 0x01 0x00000000 0xffff 0xffff \x05\x55\x0a\xab\x02\xaa\x05\x55 \x00\x00 3 1

277 0x800c 1 0 0 60000 0xffff 0x80030000 0x0000 0x00 0x01 0x00000000 0xffff 0xffff \x05\x55\x0a\xab\x02\xaa\x05\x55 \x00\x00 3 1
277 0x800d 1 0 0 60000 0xffff 0x80030001 0x0000 0x00 0x01 0x00000000 0xffff 0xffff \x05\x55\x0a\xab\x02\xaa\x05\x55 \x00\x00 3 1
277 0x800e 1 0 0 60000 0xffff 0x80030002 0x0000 0x00 0x01 0x00000000 0xffff 0xffff \x05\x55\x0a\xab\x02\xaa\x05\x55 \x00\x00 3 1
277 0x800f 1 0 0 60000 0xffff 0x80030003 0x0000 0x00 0x01 0x00000000 0xffff 0xffff \x05\x55\x0a\xab\x02\xaa\x05\x55 \x00\x00 3 1

277 0x8010 1 0 0 60000 0xffff 0x80040000 0x0000 0x00 0x01 0x00000000 0xffff 0xffff \x05\x55\x0a\xab\x02\xaa\x05\x55 \x00\x00 3 1
277 0x8011 1 0 0 60000 0xffff 0x80040001 0x0000 0x00 0x01 0x00000000 0xffff 0xffff \x05\x55\x0a\xab\x02\xaa\x05\x55 \x00\x00 3 1
277 0x8012 1 0 0 60000 0xffff 0x80040002 0x0000 0x00 0x01 0x00000000 0xffff 0xffff \x05\x55\x0a\xab\x02\xaa\x05\x55 \x00\x00 3 1
277 0x8013 1 0 0 60000 0xffff 0x80040003 0x0000 0x00 0x01 0x00000000 0xffff 0xffff \x05\x55\x0a\xab\x02\xaa\x05\x55 \x00\x00 3 1

277 0x8014 1 0 0 60000 0xffff 0x80050000 0x0000 0x00 0x01 0x00000000 0xffff 0xffff \x05\x55\x0a\xab\x02\xaa\x05\x55 \x00\x00 3 1
277 0x8015 1 0 0 60000 0xffff 0x80050001 0x0000 0x00 0x01 0x00000000 0xffff 0xffff \x05\x55\x0a\xab\x02\xaa\x05\x55 \x00\x00 3 1
277 0x8016 1 0 0 60000 0xffff 0x80050002 0x0000 0x00 0x01 0x00000000 0xffff 0xffff \x05\x55\x0a\xab\x02\xaa\x05\x55 \x00\x00 3 1
277 0x8017 1 0 0 60000 0xffff 0x80050003 0x0000 0x00 0x01 0x00000000 0xffff 0xffff \x05\x55\x0a\xab\x02\xaa\x05\x55 \x00\x00 3 1

277 0x8018 1 0 0 60000 0xffff 0x80060000 0x0000 0x00 0x01 0x00000000 0xffff 0xffff \x05\x55\x0a\xab\x02\xaa\x05\x55 \x00\x00 3 1
277 0x8019 1 0 0 60000 0xffff 0x80060001 0x0000 0x00 0x01 0x00000000 0xffff 0xffff \x05\x55\x0a\xab\x02\xaa\x05\x55 \x00\x00 3 1
277 0x801a 1 0 0 60000 0xffff 0x80060002 0x0000 0x00 0x01 0x00000000 0xffff 0xffff \x05\x55\x0a\xab\x02\xaa\x05\x55 \x00\x00 3 1
277 0x801b 1 0 0 60000 0xffff 0x80060003 0x0000 0x00 0x01 0x00000000 0xffff 0xffff \x05\x55\x0a\xab\x02\xaa\x05\x55 \x00\x00 3 1

277 0x801c 1 0 0 60000 0xffff 0x80070000 0x0000 0x00 0x01 0x00000000 0xffff 0xffff \x05\x55\x0a\xab\x02\xaa\x05\x55 \x00\x00 3 1
277 0x801d 1 0 0 60000 0xffff 0x80070001 0x0000 0x00 0x01 0x00000000 0xffff 0xffff \x05\x55\x0a\xab\x02\xaa\x05\x55 \x00\x00 3 1
277 0x801e 1 0 0 60000 0xffff 0x80070002 0x0000 0x00 0x01 0x00000000 0xffff 0xffff \x05\x55\x0a\xab\x02\xaa\x05\x55 \x00\x00 3 1
277 0x801f 1 0 0 60000 0xffff 0x80070003 0x0000 0x00 0x01 0x00000000 0xffff 0xffff \x05\x55\x0a\xab\x02\xaa\x05\x55 \x00\x00 3 1

# Power Shedding
133 0 0 7200 0 600 0 0 0 0 0 0

# Port mapping package-G
297 0 0 \0\0\0\0\0\0\0\0\0\0\0\0\0\0\0\0 \0\0\0\0\0\0\0\0\0\0\0\0\0\0\0\0 \0\0\0\0\0\0\0\0\0\0\0\0\0\0\0\0 \0\0\0\0\0\0\0\0\0\0\0\0\0\0\0\0 \0\0\0\0\0\0\0\0\0\0\0\0\0\0\0\0 \0\0\0\0\0\0\0\0\0\0\0\0\0\0\0\0 \0\0\0\0\0\0\0\0\0\0\0\0\0\0\0\0 \0\0\0\0\0\0\0\0\0\0\0\0\0\0\0\0

# Equipment extension package
160 0

# IP host config data
134 0

# LIOD Password
65530 0 CTC\0 \0\0\0\0\0\0\0\0\0\0\0\0\0\0\0\0\0\0\0\0\0\0\0\0 \0\0\0\0\0\0\0\0\0\0\0\0 0